% seed = 8842734

mint = 65;
% maxt = 258;

nActs = 42;
dur = [0,8,5,6,3,7,10,8,7,7,2,6,10,8,5,10,9,7,6,1,2,8,3,8,9,10,5,7,5,9,5,9,7,5,8,6,4,8,2,5,8,0];

nSkills = 4;
sreq = [| 0,0,0,0,
	| 5,0,0,3,
	| 6,0,7,0,
	| 0,2,0,3,
	| 0,0,5,4,
	| 3,4,0,0,
	| 0,2,7,0,
	| 4,0,0,4,
	| 5,4,0,0,
	| 5,0,0,3,
	| 3,0,5,0,
	| 5,3,0,0,
	| 0,4,6,0,
	| 0,2,0,3,
	| 0,0,7,1,
	| 4,4,0,0,
	| 0,4,0,5,
	| 0,0,3,5,
	| 0,4,3,0,
	| 5,0,0,5,
	| 3,2,0,0,
	| 3,0,4,0,
	| 2,2,0,0,
	| 6,4,0,0,
	| 0,0,5,3,
	| 3,0,0,6,
	| 0,3,4,0,
	| 2,4,0,0,
	| 0,1,0,5,
	| 0,1,0,6,
	| 7,0,0,4,
	| 4,4,0,0,
	| 3,0,0,5,
	| 0,4,5,0,
	| 0,4,2,0,
	| 0,4,0,3,
	| 0,0,7,5,
	| 0,4,0,5,
	| 3,4,0,0,
	| 0,4,6,0,
	| 3,0,0,4,
	| 0,0,0,0, |];

nResources = 20;
mastery = [| true,false,true,true,
	| true,false,true,true,
	| true,false,false,false,
	| true,false,false,true,
	| false,false,true,true,
	| false,false,false,true,
	| true,false,true,false,
	| true,false,false,false,
	| false,true,true,true,
	| true,false,true,false,
	| true,false,true,true,
	| false,false,false,true,
	| true,false,false,false,
	| false,false,true,false,
	| true,false,true,true,
	| false,true,true,true,
	| true,false,false,true,
	| false,true,false,false,
	| false,false,false,true,
	| false,true,false,false, |];

nPrecs = 61;
pred = [1,1,1,2,3,3,3,4,4,4,5,5,6,6,6,7,7,7,8,8,9,10,11,11,12,13,13,14,14,14,15,16,16,17,18,19,19,20,21,22,23,24,24,25,26,27,28,28,29,30,31,32,33,34,35,36,37,38,39,40,41];
succ = [2,3,4,7,21,5,23,9,6,22,18,39,11,19,14,27,13,8,10,16,32,12,25,12,16,35,29,17,37,15,24,33,40,41,26,20,32,24,31,35,36,27,30,28,30,33,34,36,30,36,33,35,37,38,39,41,40,39,42,42,42];

nUnrels = 549;
unpred = [2,2,2,2,2,2,2,2,2,2,2,2,2,2,2,2,2,2,2,2,2,2,2,3,3,3,3,3,3,3,3,3,3,3,3,3,3,3,3,3,3,3,3,3,3,3,3,3,4,4,4,4,4,4,4,4,4,4,4,5,5,5,5,5,5,5,5,5,5,5,5,5,5,5,5,5,5,5,5,5,5,5,5,5,5,5,5,5,5,6,6,6,6,6,6,6,6,6,6,6,6,7,7,7,7,7,7,7,7,7,7,7,7,7,7,7,7,7,7,7,8,8,8,8,8,8,8,8,8,8,8,8,8,8,8,8,8,8,8,8,8,8,8,8,8,8,8,9,9,9,9,9,9,9,9,9,9,9,9,9,9,9,9,9,9,9,9,9,9,9,9,9,9,9,9,9,10,10,10,10,10,10,10,10,10,10,10,10,10,10,10,10,10,10,10,10,10,10,10,10,10,10,11,11,11,11,11,11,11,11,11,11,11,11,11,11,11,11,11,11,12,12,12,12,12,12,12,12,12,12,12,12,12,12,12,12,12,12,12,12,12,12,12,12,12,13,13,13,13,13,13,13,13,13,13,13,13,13,13,13,13,13,13,13,13,13,13,14,14,14,14,14,14,14,14,14,14,14,14,14,14,14,14,14,15,15,15,15,15,15,15,15,15,15,15,15,15,15,15,15,15,15,16,16,16,16,16,16,16,16,16,16,16,16,16,16,16,16,16,16,16,16,16,16,17,17,17,17,17,17,17,17,17,17,17,17,17,17,17,17,17,17,17,17,17,17,17,18,18,18,18,18,18,18,18,18,18,18,18,18,18,18,18,18,18,18,19,19,19,19,19,19,19,19,19,19,20,20,20,20,20,20,20,20,20,20,20,20,20,21,21,21,21,21,21,21,21,21,21,21,21,21,21,21,21,22,22,22,22,22,22,22,22,22,22,22,22,22,22,22,22,22,23,23,23,23,23,23,23,23,23,23,23,23,23,23,23,23,24,24,24,24,24,24,24,24,24,24,25,25,25,25,25,25,25,25,25,25,26,26,26,26,26,26,26,26,26,26,26,26,27,27,27,27,27,27,27,27,27,27,27,28,28,28,28,28,28,28,28,29,29,29,29,29,29,29,29,29,30,30,30,30,30,30,30,30,30,31,31,31,31,31,31,31,32,32,32,32,32,32,32,33,33,33,33,33,33,34,34,34,34,34,35,35,35,35,35,36,36,36,36,37,37,37,38,38,39,39,40];
unsucc = [3,4,5,6,9,11,14,15,17,18,19,20,21,22,23,24,25,26,28,31,32,34,38,4,6,7,8,9,10,11,12,13,14,15,16,17,19,20,22,24,25,27,28,29,32,34,35,38,5,7,8,10,13,18,21,23,26,29,31,6,7,8,9,10,11,12,13,14,15,16,17,19,20,21,22,23,24,25,27,28,29,31,32,33,34,35,37,38,40,7,8,9,10,13,18,21,22,23,26,29,31,9,11,14,15,17,18,19,20,21,22,23,24,25,26,28,31,32,34,38,9,11,13,14,15,17,18,19,20,21,22,23,24,25,26,27,28,29,30,31,32,34,35,36,38,39,41,10,11,12,13,14,15,16,17,18,19,20,21,22,23,24,25,26,27,28,29,30,31,33,34,36,37,38,40,41,11,13,14,15,17,18,19,20,21,22,23,24,25,26,27,28,29,30,31,32,34,35,36,38,39,41,13,14,15,17,18,19,20,21,22,23,24,26,27,29,30,31,32,35,13,14,15,17,18,19,20,21,22,23,24,25,26,27,28,29,30,31,32,34,35,36,38,39,41,14,15,16,17,18,19,20,21,22,23,24,25,26,27,28,31,32,33,34,37,38,40,16,18,19,20,21,22,23,25,26,28,29,31,32,34,35,38,39,16,17,18,19,20,21,22,23,25,26,28,29,31,32,34,35,38,39,17,18,19,20,21,22,23,24,25,26,27,28,29,30,31,32,34,35,36,38,39,41,18,19,20,21,22,23,24,25,26,27,28,29,30,31,32,33,34,35,36,37,38,39,40,19,20,21,22,23,24,25,27,28,29,31,32,33,34,35,37,38,39,40,21,22,23,25,26,28,29,31,34,38,21,22,23,25,26,28,29,31,32,34,35,38,39,22,23,24,25,26,27,28,29,30,32,34,35,36,38,39,41,23,24,25,26,27,28,29,30,31,32,33,34,36,37,38,40,41,24,25,26,27,28,29,30,31,32,33,34,35,37,38,39,40,25,26,28,29,31,32,34,35,38,39,26,27,29,30,31,32,33,35,37,40,27,28,29,31,32,33,34,35,37,38,39,40,28,29,30,31,32,34,35,36,38,39,41,29,30,31,32,33,35,37,40,31,32,33,34,35,37,38,39,40,31,32,33,34,35,37,38,39,40,32,34,35,36,38,39,41,33,34,36,37,38,40,41,34,35,36,38,39,41,35,36,37,40,41,36,37,38,40,41,37,38,39,40,38,39,41,40,41,40,41,41];

USEFUL_RES = [{},
	{1,2,3,4,5,6,7,8,9,10,11,12,13,15,16,17,19},
	{1,2,3,4,5,7,8,9,10,11,13,14,15,16,17},
	{1,2,4,5,6,9,11,12,15,16,17,18,19,20},
	{1,2,4,5,6,7,9,10,11,12,14,15,16,17,19},
	{1,2,3,4,7,8,9,10,11,13,15,16,17,18,20},
	{1,2,5,7,9,10,11,14,15,16,18,20},
	{1,2,3,4,5,6,7,8,9,10,11,12,13,15,16,17,19},
	{1,2,3,4,7,8,9,10,11,13,15,16,17,18,20},
	{1,2,3,4,5,6,7,8,9,10,11,12,13,15,16,17,19},
	{1,2,3,4,5,7,8,9,10,11,13,14,15,16,17},
	{1,2,3,4,7,8,9,10,11,13,15,16,17,18,20},
	{1,2,5,7,9,10,11,14,15,16,18,20},
	{1,2,4,5,6,9,11,12,15,16,17,18,19,20},
	{1,2,4,5,6,7,9,10,11,12,14,15,16,17,19},
	{1,2,3,4,7,8,9,10,11,13,15,16,17,18,20},
	{1,2,4,5,6,9,11,12,15,16,17,18,19,20},
	{1,2,4,5,6,7,9,10,11,12,14,15,16,17,19},
	{1,2,5,7,9,10,11,14,15,16,18,20},
	{1,2,3,4,5,6,7,8,9,10,11,12,13,15,16,17,19},
	{1,2,3,4,7,8,9,10,11,13,15,16,17,18,20},
	{1,2,3,4,5,7,8,9,10,11,13,14,15,16,17},
	{1,2,3,4,7,8,9,10,11,13,15,16,17,18,20},
	{1,2,3,4,7,8,9,10,11,13,15,16,17,18,20},
	{1,2,4,5,6,7,9,10,11,12,14,15,16,17,19},
	{1,2,3,4,5,6,7,8,9,10,11,12,13,15,16,17,19},
	{1,2,5,7,9,10,11,14,15,16,18,20},
	{1,2,3,4,7,8,9,10,11,13,15,16,17,18,20},
	{1,2,4,5,6,9,11,12,15,16,17,18,19,20},
	{1,2,4,5,6,9,11,12,15,16,17,18,19,20},
	{1,2,3,4,5,6,7,8,9,10,11,12,13,15,16,17,19},
	{1,2,3,4,7,8,9,10,11,13,15,16,17,18,20},
	{1,2,3,4,5,6,7,8,9,10,11,12,13,15,16,17,19},
	{1,2,5,7,9,10,11,14,15,16,18,20},
	{1,2,5,7,9,10,11,14,15,16,18,20},
	{1,2,4,5,6,9,11,12,15,16,17,18,19,20},
	{1,2,4,5,6,7,9,10,11,12,14,15,16,17,19},
	{1,2,4,5,6,9,11,12,15,16,17,18,19,20},
	{1,2,3,4,7,8,9,10,11,13,15,16,17,18,20},
	{1,2,5,7,9,10,11,14,15,16,18,20},
	{1,2,3,4,5,6,7,8,9,10,11,12,13,15,16,17,19},
	{}];

POTENTIAL_ACT = [{2,3,4,5,6,7,8,9,10,11,12,13,14,15,16,17,18,19,20,21,22,23,24,25,26,27,28,29,30,31,32,33,34,35,36,37,38,39,40,41},
	{2,3,4,5,6,7,8,9,10,11,12,13,14,15,16,17,18,19,20,21,22,23,24,25,26,27,28,29,30,31,32,33,34,35,36,37,38,39,40,41},
	{2,3,6,8,9,10,11,12,16,20,21,22,23,24,26,28,31,32,33,39,41},
	{2,3,4,5,6,8,9,10,11,12,14,15,16,17,18,20,21,22,23,24,25,26,28,29,30,31,32,33,36,37,38,39,41},
	{2,3,4,5,7,8,10,11,13,14,15,17,18,19,20,22,25,26,27,29,30,31,33,34,35,36,37,38,40,41},
	{2,4,5,8,10,14,15,17,18,20,25,26,29,30,31,33,36,37,38,41},
	{2,3,5,6,7,8,9,10,11,12,13,15,16,18,19,20,21,22,23,24,25,26,27,28,31,32,33,34,35,37,39,40,41},
	{2,3,6,8,9,10,11,12,16,20,21,22,23,24,26,28,31,32,33,39,41},
	{2,3,4,5,6,7,8,9,10,11,12,13,14,15,16,17,18,19,20,21,22,23,24,25,26,27,28,29,30,31,32,33,34,35,36,37,38,39,40,41},
	{2,3,5,6,7,8,9,10,11,12,13,15,16,18,19,20,21,22,23,24,25,26,27,28,31,32,33,34,35,37,39,40,41},
	{2,3,4,5,6,7,8,9,10,11,12,13,14,15,16,17,18,19,20,21,22,23,24,25,26,27,28,29,30,31,32,33,34,35,36,37,38,39,40,41},
	{2,4,5,8,10,14,15,17,18,20,25,26,29,30,31,33,36,37,38,41},
	{2,3,6,8,9,10,11,12,16,20,21,22,23,24,26,28,31,32,33,39,41},
	{3,5,7,11,13,15,18,19,22,25,27,34,35,37,40},
	{2,3,4,5,6,7,8,9,10,11,12,13,14,15,16,17,18,19,20,21,22,23,24,25,26,27,28,29,30,31,32,33,34,35,36,37,38,39,40,41},
	{2,3,4,5,6,7,8,9,10,11,12,13,14,15,16,17,18,19,20,21,22,23,24,25,26,27,28,29,30,31,32,33,34,35,36,37,38,39,40,41},
	{2,3,4,5,6,8,9,10,11,12,14,15,16,17,18,20,21,22,23,24,25,26,28,29,30,31,32,33,36,37,38,39,41},
	{4,6,7,9,12,13,14,16,17,19,21,23,24,27,28,29,30,32,34,35,36,38,39,40},
	{2,4,5,8,10,14,15,17,18,20,25,26,29,30,31,33,36,37,38,41},
	{4,6,7,9,12,13,14,16,17,19,21,23,24,27,28,29,30,32,34,35,36,38,39,40}];
